
Gurobi 11.0.2 (linux64) logging started Tue 03 Dec 2024 09:05:37 AM CET

Set parameter LogFile to value "./res/knapPI_11_50_1000/knapPI_11_50_1000_53/grb_dom.log"
Set parameter Presolve to value 0
Set parameter Aggregate to value 0
Set parameter Heuristics to value 0
Set parameter LPWarmStart to value 0
Set parameter NLPHeur to value 0
Set parameter PreDepRow to value 0
Set parameter PreDual to value 0
Set parameter RINS to value 0
Set parameter Symmetry to value 0
Set parameter NodeLimit to value 1
Set parameter Threads to value 1

Gurobi 11.0.2 (linux64) logging started Tue 03 Dec 2024 09:05:38 AM CET

Set parameter LogFile to value "./res/knapPI_11_50_1000/knapPI_11_50_1000_53/grb_dom.log"
Set parameter NLPHeur to value 0
Set parameter LPWarmStart to value 0
Set parameter PreDepRow to value 0
Set parameter Symmetry to value 0
Set parameter Presolve to value 0
Gurobi Optimizer version 11.0.2 build v11.0.2rc0 (linux64 - "Pop!_OS 20.04 LTS")

CPU model: Intel(R) Core(TM) i7-8650U CPU @ 1.90GHz, instruction set [SSE2|AVX|AVX2]
Thread count: 4 physical cores, 4 logical processors, using up to 1 threads

Optimize a model with 10325 rows, 50 columns and 105258 nonzeros
Model fingerprint: 0xd32bf524
Variable types: 0 continuous, 50 integer (50 binary)
Coefficient statistics:
  Matrix range     [1e+00, 1e+03]
  Objective range  [3e+01, 4e+02]
  Bounds range     [0e+00, 0e+00]
  RHS range        [1e+04, 1e+04]
Variable types: 0 continuous, 50 integer (50 binary)

Root relaxation: objective 8.427167e+03, 1 iterations, 0.02 seconds (0.00 work units)

    Nodes    |    Current Node    |     Objective Bounds      |     Work
 Expl Unexpl |  Obj  Depth IntInf | Incumbent    BestBd   Gap | It/Node Time

     0     0 8427.16667    0    1          - 8427.16667      -     -    0s
     0     0 8427.16667    0    2          - 8427.16667      -     -    0s
     0     0 8403.00000    0    1          - 8403.00000      -     -    0s
     0     0 8403.00000    0    1          - 8403.00000      -     -    0s
     0     0 8403.00000    0    2          - 8403.00000      -     -    0s
     0     0 8403.00000    0    2          - 8403.00000      -     -    0s
     0     0 8403.00000    0    1          - 8403.00000      -     -    0s
     0     0 8403.00000    0    3          - 8403.00000      -     -    0s
     0     0 8403.00000    0    3          - 8403.00000      -     -    0s
*    0     0               0    8403.0000000 8403.00000  0.00%     -    0s

Cutting planes:
  Cover: 2
  MIR: 1
  StrongCG: 1

Explored 1 nodes (16 simplex iterations) in 0.70 seconds (0.24 work units)
Thread count was 1 (of 4 available processors)

Solution count 1: 8403 

Optimal solution found (tolerance 1.00e-04)
Best objective 8.403000000000e+03, best bound 8.403000000000e+03, gap 0.0000%

User-callback calls 328, time in user-callback 0.00 sec
opt = true
obj = 8403.0
nb_dom_cuts = 10324
solved_time = 0.7018
opt_val = 8403.0
